14 41
1 2 1
1 3 0
1 4 0
1 5 0
1 6 0
1 7 1
1 8 0
1 9 0
1 10 1
1 11 0
1 12 0
1 13 0
1 14 1
2 3 0
2 4 0
2 5 1
2 6 1
2 7 1
2 8 0
2 9 1
2 10 1
2 11 0
2 12 1
2 13 0
2 14 0
3 4 0
3 5 1
3 6 0
3 7 1
3 8 0
3 9 0
3 10 1
3 11 0
3 12 0
3 13 1
3 14 0
4 5 1
4 6 1
4 7 1
4 8 0
4 9 1
4 10 1
4 11 1
4 12 0
4 13 0
4 14 1
5 6 1
5 7 1
5 8 0
5 9 0
5 10 1
5 11 1
5 12 0
5 13 0
5 14 1
6 7 1
6 8 0
6 9 0
6 10 1
6 11 0
6 12 0
6 13 0
6 14 0
7 8 1
7 9 1
7 10 0
7 11 1
7 12 1
7 13 0
7 14 0
8 9 0
8 10 0
8 11 0
8 12 0
8 13 1
8 14 0
9 10 0
9 11 1
9 12 0
9 13 1
9 14 0
10 11 1
10 12 1
10 13 1
10 14 0
11 12 0
11 13 0
11 14 1
12 13 1
12 14 1
13 14 0
